% demand
num_movements = 45;
loading_factor = [900, 1650, 1750, 1300, 900, 1700, 1450, 1000, 950, 1300, 1350, 1400, 800, 1400, 1100, 1850, 1900, 1150, 1150, 1300, 1000, 800, 1550, 1800, 1650, 2000, 1850, 1750, 1300, 1350, 1300, 1300, 1000, 1500, 950, 1200, 1050, 1350, 800, 1500, 900, 1050, 1200, 1550, 1200];
pickup_time = [0, 1, 1, 1, 1, 1, 1, 1, 2, 2, 2, 2, 3, 3, 3, 3, 5, 5, 5, 5, 5, 5, 5, 5, 7, 7, 9, 9, 9, 9, 9, 9, 9, 10, 10, 10, 10, 10, 10, 10, 10, 11, 11, 11, 11];
delivery_time = [3, 3, 2, 3, 2, 2, 4, 2, 3, 3, 3, 3, 4, 4, 5, 4, 7, 10, 7, 9, 8, 7, 7, 7, 9, 9, 10, 11, 10, 10, 10, 10, 10, 11, 12, 11, 11, 11, 11, 11, 11, 14, 12, 12, 13];

% transporter definition
total_capacity = 11000;
num_decks = 4;
capacity = [3000, 3000, 1000, 4000];

% ways out of decks
num_ways_out = 2;
paths_out = array3d(decks, ways_out, decks, [
% ways out of deck d1
2, 4, 0, 0, 3, 4, 0, 0, 

% ways out of deck d2
4, 0, 0, 0, 0, 0, 0, 0,	

% ways out of deck d3
4, 0, 0, 0, 0, 0, 0, 0,	

% ways out of deck d4
0, 0, 0, 0,	0, 0, 0, 0,	

]);

